
Gurobi 9.1.0 (win64) logging started Sun Dec 13 15:42:03 2020

Changed value of parameter LogFile to logs/iteration4
   Prev:   Default: 
Gurobi Optimizer version 9.1.0 build v9.1.0rc0 (win64)
Thread count: 4 physical cores, 8 logical processors, using up to 8 threads
Optimize a model with 136 rows, 286 columns and 886 nonzeros
Model fingerprint: 0xbf932fe4
Coefficient statistics:
  Matrix range     [1e+00, 1e+00]
  Objective range  [1e+03, 2e+03]
  Bounds range     [0e+00, 0e+00]
  RHS range        [1e+00, 1e+00]
Presolve removed 77 rows and 83 columns
Presolve time: 0.00s
Presolved: 59 rows, 203 columns, 777 nonzeros

Iteration    Objective       Primal Inf.    Dual Inf.      Time
       0    1.3102658e+05   3.800000e+01   0.000000e+00      0s
Extra simplex iterations after uncrush: 1
      70    1.5635417e+05   0.000000e+00   0.000000e+00      0s

Solved in 70 iterations and 0.00 seconds
Optimal objective  1.563541667e+05

Solutionx[2] 0.500000 
x[4] 1.000000 
x[8] 1.000000 
x[9] 1.000000 
x[10] 1.000000 
x[12] 1.000000 
x[14] 1.000000 
x[15] 1.000000 
x[18] 0.500000 
x[20] 1.000000 
x[24] 1.000000 
x[26] 1.000000 
x[27] 1.000000 
x[28] 0.500000 
x[29] 1.000000 
x[33] 1.000000 
x[34] 1.000000 
x[36] 1.000000 
x[37] 1.000000 
x[38] 1.000000 
x[39] 0.500000 
x[41] 0.500000 
x[42] 0.500000 
x[44] 1.000000 
x[47] 1.000000 
x[51] 1.000000 
x[53] 1.000000 
x[54] 1.000000 
x[55] 1.000000 
x[57] 1.000000 
x[58] 1.000000 
x[60] 1.000000 
x[61] 1.000000 
x[62] 1.000000 
x[63] 1.000000 
x[64] 1.000000 
x[65] 1.000000 
x[66] 1.000000 
x[68] 1.000000 
x[70] 1.000000 
x[71] 1.000000 
x[72] 1.000000 
x[73] 1.000000 
x[74] 1.000000 
x[75] 1.000000 
x[76] 1.000000 
x[77] 1.000000 
x[78] 1.000000 
x[82] 1.000000 
x[83] 1.000000 
x[84] 1.000000 
x[87] 1.000000 
x[89] 1.000000 
x[90] 1.000000 
x[91] 1.000000 
x[92] 1.000000 
x[93] 1.000000 
x[96] 1.000000 
x[97] 1.000000 
x[98] 1.000000 
x[99] 1.000000 
x[100] 1.000000 
x[101] 1.000000 
x[102] 1.000000 
x[103] 1.000000 
x[104] 1.000000 
x[105] 1.000000 
x[106] 1.000000 
x[107] 1.000000 
x[108] 1.000000 
x[109] 1.000000 
x[111] 1.000000 
x[112] 1.000000 
x[113] 1.000000 
x[115] 1.000000 
x[116] 1.000000 
x[117] 1.000000 
x[118] 1.000000 
x[120] 1.000000 
x[121] 1.000000 
x[122] 1.000000 
x[123] 1.000000 
x[124] 1.000000 
x[125] 1.000000 
x[126] 1.000000 
x[127] 1.000000 
x[128] 1.000000 
x[129] 1.000000 
x[130] 1.000000 
x[131] 1.000000 
x[132] 1.000000 
x[133] 1.000000 
x[134] 1.000000 
x[135] 1.000000 
x[436] 1.000000 
x[696] 0.500000 
x[810] 1.000000 
x[2553] 0.500000 
x[2915] 1.000000 
x[20743] 1.000000 
x[31258] 1.000000 
x[9961] 1.000000 
x[6754] 1.000000 
x[11274] 0.500000 
x[15911] 0.500000 
